Clp0006I 0  Obj 0 Primal inf 999.9999 (1000) Dual inf 6868861 (250000)
Clp0006I 200  Obj -4164040 Primal inf 305060 (1000)
Clp0006I 400  Obj -1429341 Primal inf 109707 (1000)
Clp0006I 600  Obj -25891 Primal inf 12544 (992)
Clp0006I 700  Obj -25444 Primal inf 17964 (992)
Clp0006I 774  Obj -25444 Primal inf 42720 (991)
Clp0006I 861  Obj -25444 Primal inf 44021 (986)
Clp0006I 958  Obj -25444 Primal inf 33727 (989)
Clp0006I 1066  Obj -25444 Primal inf 60591 (990)
Clp0006I 1163  Obj -25444 Primal inf 32899 (990)
Clp0006I 1270  Obj -25444 Primal inf 42161 (987)
Clp0006I 1373  Obj -25444 Primal inf 44154 (989)
Clp0006I 1479  Obj -25444 Primal inf 39455 (989)
Clp0006I 1591  Obj -25444 Primal inf 38340 (989)
Clp0006I 1699  Obj -25444 Primal inf 28349 (990)
Clp0006I 1815  Obj -25444 Primal inf 36736 (989)
Clp0006I 1920  Obj -25444 Primal inf 30128 (985)
Clp0006I 2031  Obj -25444 Primal inf 47553 (982)
Clp0006I 2143  Obj -25444 Primal inf 41773 (986)
Clp0006I 2266  Obj -25444 Primal inf 51861 (986)
Clp0006I 2371  Obj -25444 Primal inf 37023 (984)
Clp0006I 2487  Obj -25444 Primal inf 39300 (983)
Clp0006I 2588  Obj -25444 Primal inf 27176 (983)
Clp0006I 2704  Obj -25444 Primal inf 29742 (986)
Clp0006I 2810  Obj -25444 Primal inf 34000 (981)
Clp0006I 2919  Obj -25444 Primal inf 33468 (979)
Clp0006I 3025  Obj -25444 Primal inf 26566 (976)
Clp0006I 3134  Obj -25312 Primal inf 25702 (977)
Clp0006I 3251  Obj -25312 Primal inf 18528 (973)
Clp0006I 3372  Obj -25312 Primal inf 28425 (973)
Clp0006I 3477  Obj -25312 Primal inf 18194 (972)
Clp0006I 3597  Obj -25312 Primal inf 29779 (964)
Clp0006I 3703  Obj -25312 Primal inf 20332 (957)
Clp0006I 3828  Obj -25312 Primal inf 21736 (952)
Clp0006I 3945  Obj -25312 Primal inf 20133 (938)
Clp0006I 4059  Obj -25312 Primal inf 21453 (941)
Clp0006I 4171  Obj -25312 Primal inf 19331 (937)
Clp0006I 4289  Obj -25280 Primal inf 25145 (930)
Clp0006I 4393  Obj -25280 Primal inf 33051 (929)
Clp0006I 4488  Obj -25280 Primal inf 29896 (922)
Clp0006I 4588  Obj -25280 Primal inf 22365 (923)
Clp0006I 4693  Obj -25280 Primal inf 32913 (923)
Clp0006I 4787  Obj -25280 Primal inf 31519 (926)
Clp0006I 4886  Obj -25280 Primal inf 32128 (918)
Clp0006I 4992  Obj -25280 Primal inf 27393 (918)
Clp0006I 5090  Obj -25280 Primal inf 31774 (907)
Clp0006I 5190  Obj -25280 Primal inf 29855 (908)
Clp0006I 5294  Obj -25280 Primal inf 29853 (896)
Clp0006I 5399  Obj -25280 Primal inf 28295 (894)
Clp0006I 5503  Obj -25021 Primal inf 27114 (894)
Clp0006I 5599  Obj -25021 Primal inf 29314 (895)
Clp0006I 5694  Obj -25021 Primal inf 28988 (907)
Clp0006I 5788  Obj -25021 Primal inf 29151 (898)
Clp0006I 5876  Obj -25021 Primal inf 39290 (888)
Clp0006I 5952  Obj -25021 Primal inf 26694 (896)
Clp0006I 6046  Obj -25021 Primal inf 29517 (889)
Clp0006I 6137  Obj -25021 Primal inf 34557 (883)
Clp0006I 6227  Obj -25021 Primal inf 26732 (876)
Clp0006I 6315  Obj -25021 Primal inf 23173 (873)
Clp0006I 6409  Obj -25021 Primal inf 21831 (861)
Clp0006I 6500  Obj -25021 Primal inf 27255 (852)
Clp0006I 6589  Obj -25021 Primal inf 18844 (849)
Clp0006I 6689  Obj -25021 Primal inf 23934 (848)
Clp0006I 6793  Obj -25000 Primal inf 17849 (838)
Clp0006I 6894  Obj -25000 Primal inf 23450 (831)
Clp0006I 6987  Obj -25000 Primal inf 24942 (834)
Clp0006I 7079  Obj -25000 Primal inf 26080 (829)
Clp0006I 7181  Obj -25000 Primal inf 18512 (823)
Clp0006I 7282  Obj -25000 Primal inf 19801 (820)
Clp0006I 7384  Obj -25000 Primal inf 26398 (809)
Clp0006I 7483  Obj -25000 Primal inf 17861 (795)
Clp0006I 7585  Obj -25000 Primal inf 24426 (793)
Clp0006I 7680  Obj -25000 Primal inf 26171 (790)
Clp0006I 7780  Obj -25000 Primal inf 22852 (781)
Clp0006I 7867  Obj -25000 Primal inf 14553 (778)
Clp0006I 7956  Obj -25000 Primal inf 15462 (774)
Clp0006I 8039  Obj -25000 Primal inf 10633 (768)
Clp0006I 8138  Obj -25000 Primal inf 14302 (769)
Clp0006I 8230  Obj -25000 Primal inf 14547 (761)
Clp0006I 8336  Obj -25000 Primal inf 18811 (758)
Clp0006I 8428  Obj -25000 Primal inf 18674 (758)
Clp0006I 8512  Obj -25000 Primal inf 15751 (759)
Clp0006I 8604  Obj -25000 Primal inf 17154 (756)
Clp0006I 8704  Obj -25000 Primal inf 16079 (748)
Clp0006I 8800  Obj -25000 Primal inf 10028 (729)
Clp0006I 8888  Obj -25000 Primal inf 12240 (725)
Clp0006I 8984  Obj -25000 Primal inf 12661 (720)
Clp0006I 9081  Obj -25000 Primal inf 11737 (710)
Clp0006I 9169  Obj -25000 Primal inf 12911 (710)
Clp0006I 9272  Obj -25000 Primal inf 12335 (710)
Clp0006I 9383  Obj -25000 Primal inf 13868 (718)
Clp0006I 9492  Obj -25000 Primal inf 12997 (711)
Clp0006I 9596  Obj -25000 Primal inf 11949 (710)
Clp0006I 9712  Obj -25000 Primal inf 13726 (711)
Clp0006I 9817  Obj -25000 Primal inf 15002 (700)
Clp0006I 9911  Obj -25000 Primal inf 11487 (699)
Clp0006I 10020  Obj -25000 Primal inf 15045 (689)
Clp0006I 10127  Obj -25000 Primal inf 9612.9999 (679)
Clp0006I 10228  Obj -25000 Primal inf 8594.9999 (669)
Clp0006I 10311  Obj -25000 Primal inf 6427.9999 (656)
Clp0006I 10427  Obj -25000 Primal inf 3794.9999 (644)
Clp0006I 10557  Obj -25000 Primal inf 3269.9999 (598)
Clp0006I 10649  Obj -25000 Primal inf 2324.9999 (573)
Clp0006I 10768  Obj -25000 Primal inf 2791.9999 (565)
Clp0006I 10867  Obj -25000 Primal inf 3697.9999 (569)
Clp0006I 10953  Obj -25000 Primal inf 4068.9999 (569)
Clp0006I 11050  Obj -25000 Primal inf 3541.9999 (557)
Clp0006I 11149  Obj -25000 Primal inf 1998.9999 (538)
Clp0006I 11271  Obj -25000 Primal inf 2876.9999 (534)
Clp0006I 11350  Obj -25000 Primal inf 2835.9999 (526)
Clp0006I 11434  Obj -25000 Primal inf 1818.9999 (512)
Clp0006I 11515  Obj -25000 Primal inf 1804.9999 (510)
Clp0006I 11599  Obj -25000 Primal inf 3253.9999 (521)
Clp0006I 11690  Obj -25000 Primal inf 3091 (486)
Clp0006I 11789  Obj -25000 Primal inf 1205 (460)
Clp0006I 11874  Obj -25000 Primal inf 2568 (465)
Clp0006I 11964  Obj -25000 Primal inf 1631 (452)
Clp0006I 12062  Obj -25000 Primal inf 796.99996 (404)
Clp0006I 12190  Obj -25000 Primal inf 804.99997 (287)
Clp0006I 12289  Obj -25000 Primal inf 1005 (270)
Clp0006I 12393  Obj -25000 Primal inf 492.99998 (198)
Clp0006I 12498  Obj -25000 Primal inf 591.99998 (180)
Clp0006I 12611  Obj -25000 Primal inf 557.99998 (175)
Clp0006I 12715  Obj -25000 Primal inf 191.99999 (130)
Clp0006I 12831  Obj -25000 Primal inf 264.99999 (106)
Clp0006I 12925  Obj -25000 Primal inf 137.99999 (78)
Clp0006I 13032  Obj -25000 Primal inf 177.99999 (74)
Clp0006I 13134  Obj -25000 Primal inf 105 (36)
Clp0006I 13235  Obj -25000 Primal inf 24.999998 (21)
Clp0006I 13277  Obj -25000
Clp0000I Optimal - objective value -25000
Clp0000I Optimal - objective value -25000
Node 0 depth 0 unsatisfied 0 sum 0 obj -25000 guess -25000 branching on -1
Clp0000I Optimal - objective value -25000
Cbc0004I Integer solution of -25000 found after 0 iterations and 0 nodes (30.99 seconds)
Cbc0001I Search completed - best objective -25000, took 0 iterations and 0 nodes (31.08 seconds)
Cbc0035I Maximum depth 0, 0 variables fixed on reduced cost
Clp0000I Optimal - objective value -25000
Clp0000I Optimal - objective value -25000
x_73 = 1
x_521 = 1
x_1223 = 1
x_1925 = 1
x_2161 = 1
x_2792 = 1
x_3173 = 1
x_3945 = 1
x_4184 = 1
x_4576 = 1
x_5202 = 1
x_5959 = 1
x_6231 = 1
x_6683 = 1
x_7395 = 1
x_7699 = 1
x_8358 = 1
x_8656 = 1
x_9217 = 1
x_9901 = 1
x_10448 = 1
x_10833 = 1
x_11387 = 1
x_11854 = 1
x_12283 = 1
x_12586 = 1
x_13328 = 1
x_13753 = 1
x_14055 = 1
x_14986 = 1
x_15397 = 1
x_15660 = 1
x_16252 = 1
x_16650 = 1
x_17046 = 1
x_17823 = 1
x_18452 = 1
x_18658 = 1
x_19102 = 1
x_19989 = 1
x_20205 = 1
x_20772 = 1
x_21346 = 1
x_21844 = 1
x_22357 = 1
x_22852 = 1
x_23295 = 1
x_23815 = 1
x_24251 = 1
x_24756 = 1
x_25478 = 1
x_25645 = 1
x_26405 = 1
x_26787 = 1
x_27280 = 1
x_27793 = 1
x_28119 = 1
x_28995 = 1
x_29427 = 1
x_29668 = 1
x_30164 = 1
x_30808 = 1
x_31479 = 1
x_31761 = 1
x_32219 = 1
x_32812 = 1
x_33268 = 1
x_33591 = 1
x_34327 = 1
x_34701 = 1
x_35298 = 1
x_35584 = 1
x_36185 = 1
x_36617 = 1
x_37338 = 1
x_37811 = 1
x_38258 = 1
x_38889 = 1
x_39093 = 1
x_39850 = 1
x_40330 = 1
x_40984 = 1
x_41222 = 1
x_41883 = 1
x_42345 = 1
x_42876 = 1
x_43385 = 1
x_43773 = 1
x_44154 = 1
x_44769 = 1
x_45247 = 1
x_45809 = 1
x_46170 = 1
x_46676 = 1
x_47200 = 1
x_47819 = 1
x_48419 = 1
x_48562 = 1
x_49277 = 1
x_49840 = 1
x_50111 = 1
x_50721 = 1
x_51456 = 1
x_51776 = 1
x_52174 = 1
x_52577 = 1
x_53430 = 1
x_53762 = 1
x_54392 = 1
x_54745 = 1
x_55147 = 1
x_55513 = 1
x_56152 = 1
x_56625 = 1
x_57034 = 1
x_57968 = 1
x_58265 = 1
x_58797 = 1
x_59004 = 1
x_59610 = 1
x_60033 = 1
x_60754 = 1
x_61379 = 1
x_61820 = 1
x_62092 = 1
x_62616 = 1
x_63069 = 1
x_63920 = 1
x_64133 = 1
x_64902 = 1
x_65226 = 1
x_65609 = 1
x_66068 = 1
x_66789 = 1
x_67230 = 1
x_67718 = 1
x_68040 = 1
x_68847 = 1
x_69279 = 1
x_69572 = 1
x_70368 = 1
x_70781 = 1
x_71380 = 1
x_71775 = 1
x_72369 = 1
x_72578 = 1
x_73404 = 1
x_73825 = 1
x_74440 = 1
x_74859 = 1
x_75121 = 1
x_75974 = 1
x_76127 = 1
x_76874 = 1
x_77417 = 1
x_77663 = 1
x_78182 = 1
x_78814 = 1
x_79382 = 1
x_79688 = 1
x_80026 = 1
x_80939 = 1
x_81018 = 1
x_81784 = 1
x_82463 = 1
x_82766 = 1
x_83378 = 1
x_83711 = 1
x_84278 = 1
x_84839 = 1
x_85002 = 1
x_85600 = 1
x_86203 = 1
x_86520 = 1
x_87198 = 1
x_87687 = 1
x_88398 = 1
x_88796 = 1
x_89301 = 1
x_89549 = 1
x_90130 = 1
x_90559 = 1
x_91019 = 1
x_91552 = 1
x_92141 = 1
x_92598 = 1
x_93336 = 1
x_93767 = 1
x_94386 = 1
x_94800 = 1
x_95003 = 1
x_95530 = 1
x_96206 = 1
x_96665 = 1
x_97220 = 1
x_97642 = 1
x_98006 = 1
x_98606 = 1
x_99409 = 1
x_99867 = 1
x_100039 = 1
x_100537 = 1
x_101025 = 1
x_101863 = 1
x_102136 = 1
x_102821 = 1
x_103005 = 1
x_103715 = 1
x_104131 = 1
x_104620 = 1
x_105212 = 1
x_105870 = 1
x_106137 = 1
x_106514 = 1
x_107135 = 1
x_107853 = 1
x_108355 = 1
x_108813 = 1
x_109012 = 1
x_109672 = 1
x_110180 = 1
x_110599 = 1
x_111244 = 1
x_111629 = 1
x_112236 = 1
x_112523 = 1
x_113083 = 1
x_113749 = 1
x_114087 = 1
x_114574 = 1
x_115017 = 1
x_115743 = 1
x_116316 = 1
x_116912 = 1
x_117318 = 1
x_117554 = 1
x_118248 = 1
x_118860 = 1
x_119240 = 1
x_119563 = 1
x_120045 = 1
x_120824 = 1
x_121285 = 1
x_121805 = 1
x_122134 = 1
x_122774 = 1
x_123122 = 1
x_123522 = 1
x_124088 = 1
x_124560 = 1
x_125237 = 1
x_125728 = 1
x_126024 = 1
x_126716 = 1
x_127000 = 1
x_127713 = 1
x_128349 = 1
x_128509 = 1
x_129400 = 1
x_129807 = 1
x_130042 = 1
x_130535 = 1
x_131209 = 1
x_131727 = 1
x_132138 = 1
x_132558 = 1
x_133214 = 1
x_133732 = 1
x_134271 = 1
x_134581 = 1
x_135128 = 1
x_135958 = 1
x_136031 = 1
x_136675 = 1
x_137067 = 1
x_137677 = 1
x_138171 = 1
x_138551 = 1
x_139056 = 1
x_139931 = 1
x_140259 = 1
x_140659 = 1
x_141041 = 1
x_141695 = 1
x_142011 = 1
x_142691 = 1
x_143294 = 1
x_143615 = 1
x_144082 = 1
x_144564 = 1
x_145144 = 1
x_145607 = 1
x_146166 = 1
x_146597 = 1
x_147085 = 1
x_147643 = 1
x_148331 = 1
x_148507 = 1
x_149126 = 1
x_149590 = 1
x_150418 = 1
x_150655 = 1
x_151193 = 1
x_151872 = 1
x_152148 = 1
x_152550 = 1
x_153075 = 1
x_153501 = 1
x_154065 = 1
x_154770 = 1
x_155208 = 1
x_155623 = 1
x_156194 = 1
x_156618 = 1
x_157146 = 1
x_157934 = 1
x_158260 = 1
x_158548 = 1
x_159071 = 1
x_159532 = 1
x_160103 = 1
x_160589 = 1
x_161373 = 1
x_161832 = 1
x_162242 = 1
x_162640 = 1
x_163375 = 1
x_163543 = 1
x_164105 = 1
x_164689 = 1
x_165454 = 1
x_165884 = 1
x_166124 = 1
x_166515 = 1
x_167114 = 1
x_167710 = 1
x_168151 = 1
x_168538 = 1
x_169286 = 1
x_169653 = 1
x_170306 = 1
x_170738 = 1
x_171057 = 1
x_171741 = 1
x_172371 = 1
x_172804 = 1
x_173408 = 1
x_173544 = 1
x_174047 = 1
x_174822 = 1
x_175377 = 1
x_175923 = 1
x_176302 = 1
x_176993 = 1
x_177080 = 1
x_177594 = 1
x_178157 = 1
x_178613 = 1
x_179167 = 1
x_179612 = 1
x_180008 = 1
x_180837 = 1
x_181406 = 1
x_181669 = 1
x_182190 = 1
x_182510 = 1
x_183257 = 1
x_183639 = 1
x_184233 = 1
x_184739 = 1
x_185181 = 1
x_185861 = 1
x_186070 = 1
x_186734 = 1
x_187437 = 1
x_187579 = 1
x_188096 = 1
x_188950 = 1
x_189310 = 1
x_189561 = 1
x_190016 = 1
x_190817 = 1
x_191263 = 1
x_191704 = 1
x_192028 = 1
x_192692 = 1
x_193229 = 1
x_193967 = 1
x_194036 = 1
x_194697 = 1
x_195250 = 1
x_195678 = 1
x_196225 = 1
x_196894 = 1
x_197224 = 1
x_197649 = 1
x_198186 = 1
x_198926 = 1
x_199162 = 1
x_199529 = 1
x_200362 = 1
x_200953 = 1
x_201414 = 1
x_201911 = 1
x_202235 = 1
x_202553 = 1
x_203101 = 1
x_203755 = 1
x_204381 = 1
x_204865 = 1
x_205466 = 1
x_205595 = 1
x_206399 = 1
x_206928 = 1
x_207303 = 1
x_207707 = 1
x_208494 = 1
x_208936 = 1
x_209462 = 1
x_209907 = 1
x_210498 = 1
x_210903 = 1
x_211132 = 1
x_211866 = 1
x_212288 = 1
x_212992 = 1
x_213104 = 1
x_213921 = 1
x_214449 = 1
x_214943 = 1
x_215356 = 1
x_215835 = 1
x_216464 = 1
x_216975 = 1
x_217442 = 1
x_217947 = 1
x_218457 = 1
x_218946 = 1
x_219432 = 1
x_219922 = 1
x_220416 = 1
x_220864 = 1
x_221348 = 1
x_221790 = 1
x_222441 = 1
x_222608 = 1
x_223027 = 1
x_223791 = 1
x_224460 = 1
x_224888 = 1
x_225299 = 1
x_225996 = 1
x_226424 = 1
x_226782 = 1
x_227066 = 1
x_227933 = 1
x_228179 = 1
x_228955 = 1
x_229343 = 1
x_229951 = 1
x_230415 = 1
x_230851 = 1
x_231342 = 1
x_231991 = 1
x_232246 = 1
x_232910 = 1
x_233473 = 1
x_233969 = 1
x_234472 = 1
x_234987 = 1
x_235471 = 1
x_235764 = 1
x_236490 = 1
x_236893 = 1
x_237476 = 1
x_237983 = 1
x_238444 = 1
x_238896 = 1
x_239334 = 1
x_239938 = 1
x_240329 = 1
x_240961 = 1
x_241465 = 1
x_241696 = 1
x_242480 = 1
x_242997 = 1
x_243413 = 1
x_243999 = 1
x_244391 = 1
x_244841 = 1
x_245429 = 1
x_245935 = 1
x_246482 = 1
x_246970 = 1
x_247481 = 1
x_247977 = 1
x_248326 = 1
x_248988 = 1
x_249390 = 1
x_249985 = 1
real 0m32,449s user 0m32,116s sys 0m0,284s
